[runlim] version:		1.10
[runlim] time limit:		311040000 seconds
[runlim] real time limit:	900 seconds
[runlim] space limit:		6000 MB
[runlim] argv[0]:		python3
[runlim] argv[1]:		cp.py
[runlim] argv[2]:		TUD916.1
[runlim] start:			Sun Jan 18 16:42:41 2026
[runlim] main pid:		709
[runlim] sample:		9.9 time, 10.6 real, 630.0 MB
[runlim] sample:		19.7 time, 20.6 real, 1823.5 MB
Building CP model...
Build time: 7.59s
Solving CP Optimizer...
 ! --------------------------------------------------- CP Optimizer 22.1.1.0 --
 ! Minimization problem - 34536 variables, 817291 constraints
 ! Presolve      : 818209 extractables eliminated
 ! LogVerbosity         = Terse
 ! Initial process time : 8.29s (8.25s extraction + 0.04s propagation)
 !  . Log search space  : 34536.0 (before), 34536.0 (after)
 !  . Memory usage      : 129.9 MB (before), 129.9 MB (after)
 ! Using parallel search with 12 workers.
 ! ----------------------------------------------------------------------------
 !          Best Branches  Non-fixed    W       Branch decision
                        0      34536                 -
 + New bound is 0
[runlim] end:			Sun Jan 18 16:43:09 2026
[runlim] status:		out of memory
[runlim] result:		3
[runlim] children:		203
[runlim] real:			28.56 seconds
[runlim] time:			57.57 seconds
[runlim] space:			6077.8 MB
[runlim] samples:		279
